Instance Name : c104
Date : 2022-07-18
Solution
Route 1 : 34 36 39 38 37 35 31 33 32
Route 2 : 98 96 95 94 92 93 97 100 99
Route 3 : 13 17 18 19 15 16 14 12 10
Route 4 : 55 54 53 56 58 60 59 57
Route 5 : 90 87 86 83 82 84 85 88 89 91
Route 6 : 81 78 76 71 70 73 77 79 80 63
Route 7 : 20 24 25 27 29 30 28 26 23 22 21
Route 8 : 43 42 41 40 44 45 46 48 51 50 52 49 47
Route 9 : 5 3 7 8 11 9 6 4 2 1 75
Route 10 : 67 65 62 74 72 61 64 68 66 69
